(declare-fun x1 () Bool)
(declare-fun x2 () Bool)
(declare-fun x3 () Bool)

(assert (or x1 x2))
(assert (or x1 (not x2)))
(assert (or (not x1) x3))
(assert (or (not x1) (not x3)))
(assert x1)
(check-sat)
